Maximize
  - 4.53228 edge_0_2_0_0 - 2.5953085546388 edge_0_3_0_0
   - 4.8025326951343 edge_0_4_0_0 - 3.7875313223972 edge_0_5_0_0
   - 3.4622178866968 edge_0_7_0_0 - 3.18083 edge_0_10_0_0
   - 1.959318018704 edge_0_12_0_0 + 1.2597744443702 edge_2_3_0_0
   + 0.5839551453505599 edge_2_4_0_0 + 1.067290626157 edge_2_5_0_0
   - 0.040102880541416 edge_2_7_0_0 + 0.5799252608673 edge_2_8_0_0
   - 0.2105 edge_2_10_0_0 + 1.2972435786125 edge_2_11_0_0
   - 0.5687142040020799 edge_2_12_0_0 - 0.5172683280629701 edge_2_13_0_0
   - 0.1456494407711 edge_2_15_0_0 + 2.06966 edge_2_18_0_0
   + 2.1514505120614 edge_3_2_0_0 + 2.115776123261248 edge_3_4_0_0
   + 0.4078620735350035 edge_3_5_0_0 - 1.389918934727467 edge_3_7_0_0
   + 0.8920724185146851 edge_3_8_0_0 - 1.5667330906766 edge_3_10_0_0
   + 1.315707684889522 edge_3_11_0_0 - 3.337215647253293 edge_3_12_0_0
   - 0.7519381885365647 edge_3_15_0_0 - 2.090819016572675 edge_3_16_0_0
   - 1.036299354250894 edge_3_17_0_0 + 3.1703460187124 edge_3_18_0_0
   - 0.9510380068901499 edge_4_2_0_0 - 0.5894282753912422 edge_4_3_0_0
   - 0.7906256445246561 edge_4_5_0_0 - 0.25756754595488 edge_5_2_0_0
   - 0.0263256538202767 edge_5_3_0_0 + 0.3073010145686443 edge_5_4_0_0
   + 0.2172593115616858 edge_5_7_0_0 + 0.1097261534873593 edge_5_8_0_0
   - 0.54272220075556 edge_5_10_0_0 - 0.4225519409937984 edge_5_11_0_0
   - 1.182821435959003 edge_5_12_0_0 - 1.150603436144772 edge_5_13_0_0
   - 0.6003940501196604 edge_5_17_0_0 + 0.14687065233834 edge_5_18_0_0
   - 0.5770796470054 edge_7_2_0_0 - 0.5769381051907957 edge_7_3_0_0
   - 0.3551350803561684 edge_7_4_0_0 + 0.9170637139777749 edge_7_5_0_0
   + 2.276413260840438 edge_7_8_0_0 + 0.54625835323238 edge_7_9_0_0
   + 1.8751463592708 edge_7_10_0_0 + 2.389925293570037 edge_7_11_0_0
   + 0.5102294970402061 edge_7_12_0_0 - 0.6796897548237808 edge_7_13_0_0
   + 0.5521536956797691 edge_7_15_0_0 - 0.9300100488573404 edge_7_16_0_0
   - 0.5537958309556539 edge_7_17_0_0 + 1.6043612172434 edge_7_18_0_0
   - 0.966594 edge_10_2_0_0 - 1.1348149954438 edge_10_3_0_0
   - 1.1601026764944 edge_10_4_0_0 - 0.094439070523994 edge_10_5_0_0
   - 0.36290148943048 edge_10_7_0_0 + 0.4023386419854 edge_10_8_0_0
   + 3.2628449425825 edge_10_9_0_0 + 1.574032208502 edge_10_11_0_0
   + 1.7032587326728 edge_10_12_0_0 - 0.5990779420596301 edge_10_13_0_0
   + 0.23977896608028 edge_10_15_0_0 - 1.3493807483994 edge_10_16_0_0
   - 0.7044412144796001 edge_10_17_0_0 + 1.43764 edge_10_18_0_0
   - 0.0707710884804819 edge_11_12_0_0 - 1.7396572096968 edge_12_2_0_0
   - 0.939129563422041 edge_12_3_0_0 - 1.299841381337426 edge_12_4_0_0
   + 0.0234744193263537 edge_12_5_0_0 - 0.8692640329420369 edge_12_7_0_0
   - 0.0150261004189629 edge_12_8_0_0 + 1.307463266791995 edge_12_9_0_0
   + 0.47339319240008 edge_12_10_0_0 + 1.401994397902978 edge_12_11_0_0
   - 0.0166230526480359 edge_12_13_0_0 + 0.7595347074975521 edge_12_15_0_0
   - 0.8310910520979634 edge_12_16_0_0 - 0.2526622159133409 edge_12_17_0_0
   + 1.7878651925904 edge_12_18_0_0 + 0.1684382987325659 edge_13_15_0_0
   - 0.0676599415219865 edge_13_17_0_0 + 0.9574131477591932 edge_15_13_0_0
   - 0.7745664892201868 edge_15_16_0_0 + 0.1645143246797787 edge_15_17_0_0
   + 0.054425268146545 edge_15_18_0_0 - 0.0579180410586864 edge_16_13_0_0
   - 0.1787604444491025 edge_16_15_0_0 - 0.86221841700366 edge_17_2_0_0
   - 2.158767101746697 edge_17_3_0_0 + 0.6623974590729644 edge_17_4_0_0
   - 0.1305004018193894 edge_17_5_0_0 - 0.8224772785615687 edge_17_7_0_0
   + 1.048179674873125 edge_17_8_0_0 - 0.7643775827155199 edge_17_10_0_0
   + 1.174435988833479 edge_17_11_0_0 - 0.3292444820349169 edge_17_12_0_0
   + 0.9892452978854093 edge_17_13_0_0 + 0.8125307854836289 edge_17_15_0_0
   + 2.938290211224961 edge_17_16_0_0 + 1.6986101877732 edge_17_18_0_0
   - 0.9205876437317401 edge_18_16_0_0 - 0.4839023233534 edge_18_17_0_0
Subject To
 one_parent_1: = 1
 consume_one_flow_unit_1: = 1
 one_parent_2: edge_0_2_0_0 + edge_3_2_0_0 + edge_4_2_0_0 + edge_5_2_0_0
   + edge_7_2_0_0 + edge_10_2_0_0 + edge_12_2_0_0 + edge_17_2_0_0 = 1
 consume_one_flow_unit_2: flow_0_2_0_0 - flow_2_3_0_0 - flow_2_4_0_0
   - flow_2_5_0_0 - flow_2_7_0_0 - flow_2_8_0_0 - flow_2_10_0_0
   - flow_2_11_0_0 - flow_2_12_0_0 - flow_2_13_0_0 - flow_2_15_0_0
   - flow_2_18_0_0 + flow_3_2_0_0 + flow_4_2_0_0 + flow_5_2_0_0
   + flow_7_2_0_0 + flow_10_2_0_0 + flow_12_2_0_0 + flow_17_2_0_0 = 1
 one_parent_3: edge_0_3_0_0 + edge_2_3_0_0 + edge_4_3_0_0 + edge_5_3_0_0
   + edge_7_3_0_0 + edge_10_3_0_0 + edge_12_3_0_0 + edge_17_3_0_0 = 1
 consume_one_flow_unit_3: flow_0_3_0_0 + flow_2_3_0_0 - flow_3_2_0_0
   - flow_3_4_0_0 - flow_3_5_0_0 - flow_3_7_0_0 - flow_3_8_0_0
   - flow_3_10_0_0 - flow_3_11_0_0 - flow_3_12_0_0 - flow_3_15_0_0
   - flow_3_16_0_0 - flow_3_17_0_0 - flow_3_18_0_0 + flow_4_3_0_0
   + flow_5_3_0_0 + flow_7_3_0_0 + flow_10_3_0_0 + flow_12_3_0_0
   + flow_17_3_0_0 = 1
 one_parent_4: edge_0_4_0_0 + edge_2_4_0_0 + edge_3_4_0_0 + edge_5_4_0_0
   + edge_7_4_0_0 + edge_10_4_0_0 + edge_12_4_0_0 + edge_17_4_0_0 = 1
 consume_one_flow_unit_4: flow_0_4_0_0 + flow_2_4_0_0 + flow_3_4_0_0
   - flow_4_2_0_0 - flow_4_3_0_0 - flow_4_5_0_0 + flow_5_4_0_0
   + flow_7_4_0_0 + flow_10_4_0_0 + flow_12_4_0_0 + flow_17_4_0_0 = 1
 one_parent_5: edge_0_5_0_0 + edge_2_5_0_0 + edge_3_5_0_0 + edge_4_5_0_0
   + edge_7_5_0_0 + edge_10_5_0_0 + edge_12_5_0_0 + edge_17_5_0_0 = 1
 consume_one_flow_unit_5: flow_0_5_0_0 + flow_2_5_0_0 + flow_3_5_0_0
   + flow_4_5_0_0 - flow_5_2_0_0 - flow_5_3_0_0 - flow_5_4_0_0
   - flow_5_7_0_0 - flow_5_8_0_0 - flow_5_10_0_0 - flow_5_11_0_0
   - flow_5_12_0_0 - flow_5_13_0_0 - flow_5_17_0_0 - flow_5_18_0_0
   + flow_7_5_0_0 + flow_10_5_0_0 + flow_12_5_0_0 + flow_17_5_0_0 = 1
 one_parent_6: = 1
 consume_one_flow_unit_6: = 1
 one_parent_7: edge_0_7_0_0 + edge_2_7_0_0 + edge_3_7_0_0 + edge_5_7_0_0
   + edge_10_7_0_0 + edge_12_7_0_0 + edge_17_7_0_0 = 1
 consume_one_flow_unit_7: flow_0_7_0_0 + flow_2_7_0_0 + flow_3_7_0_0
   + flow_5_7_0_0 - flow_7_2_0_0 - flow_7_3_0_0 - flow_7_4_0_0
   - flow_7_5_0_0 - flow_7_8_0_0 - flow_7_9_0_0 - flow_7_10_0_0
   - flow_7_11_0_0 - flow_7_12_0_0 - flow_7_13_0_0 - flow_7_15_0_0
   - flow_7_16_0_0 - flow_7_17_0_0 - flow_7_18_0_0 + flow_10_7_0_0
   + flow_12_7_0_0 + flow_17_7_0_0 = 1
 one_parent_8: edge_2_8_0_0 + edge_3_8_0_0 + edge_5_8_0_0 + edge_7_8_0_0
   + edge_10_8_0_0 + edge_12_8_0_0 + edge_17_8_0_0 = 1
 consume_one_flow_unit_8: flow_2_8_0_0 + flow_3_8_0_0 + flow_5_8_0_0
   + flow_7_8_0_0 + flow_10_8_0_0 + flow_12_8_0_0 + flow_17_8_0_0 = 1
 one_parent_9: edge_7_9_0_0 + edge_10_9_0_0 + edge_12_9_0_0 = 1
 consume_one_flow_unit_9: flow_7_9_0_0 + flow_10_9_0_0 + flow_12_9_0_0 = 1
 one_parent_10: edge_0_10_0_0 + edge_2_10_0_0 + edge_3_10_0_0
   + edge_5_10_0_0 + edge_7_10_0_0 + edge_12_10_0_0 + edge_17_10_0_0 = 1
 consume_one_flow_unit_10: flow_0_10_0_0 + flow_2_10_0_0 + flow_3_10_0_0
   + flow_5_10_0_0 + flow_7_10_0_0 - flow_10_2_0_0 - flow_10_3_0_0
   - flow_10_4_0_0 - flow_10_5_0_0 - flow_10_7_0_0 - flow_10_8_0_0
   - flow_10_9_0_0 - flow_10_11_0_0 - flow_10_12_0_0 - flow_10_13_0_0
   - flow_10_15_0_0 - flow_10_16_0_0 - flow_10_17_0_0 - flow_10_18_0_0
   + flow_12_10_0_0 + flow_17_10_0_0 = 1
 one_parent_11: edge_2_11_0_0 + edge_3_11_0_0 + edge_5_11_0_0
   + edge_7_11_0_0 + edge_10_11_0_0 + edge_12_11_0_0 + edge_17_11_0_0 = 1
 consume_one_flow_unit_11: flow_2_11_0_0 + flow_3_11_0_0 + flow_5_11_0_0
   + flow_7_11_0_0 + flow_10_11_0_0 - flow_11_12_0_0 + flow_12_11_0_0
   + flow_17_11_0_0 = 1
 one_parent_12: edge_0_12_0_0 + edge_2_12_0_0 + edge_3_12_0_0
   + edge_5_12_0_0 + edge_7_12_0_0 + edge_10_12_0_0 + edge_11_12_0_0
   + edge_17_12_0_0 = 1
 consume_one_flow_unit_12: flow_0_12_0_0 + flow_2_12_0_0 + flow_3_12_0_0
   + flow_5_12_0_0 + flow_7_12_0_0 + flow_10_12_0_0 + flow_11_12_0_0
   - flow_12_2_0_0 - flow_12_3_0_0 - flow_12_4_0_0 - flow_12_5_0_0
   - flow_12_7_0_0 - flow_12_8_0_0 - flow_12_9_0_0 - flow_12_10_0_0
   - flow_12_11_0_0 - flow_12_13_0_0 - flow_12_15_0_0 - flow_12_16_0_0
   - flow_12_17_0_0 - flow_12_18_0_0 + flow_17_12_0_0 = 1
 one_parent_13: edge_2_13_0_0 + edge_5_13_0_0 + edge_7_13_0_0
   + edge_10_13_0_0 + edge_12_13_0_0 + edge_15_13_0_0 + edge_16_13_0_0
   + edge_17_13_0_0 = 1
 consume_one_flow_unit_13: flow_2_13_0_0 + flow_5_13_0_0 + flow_7_13_0_0
   + flow_10_13_0_0 + flow_12_13_0_0 - flow_13_15_0_0 - flow_13_17_0_0
   + flow_15_13_0_0 + flow_16_13_0_0 + flow_17_13_0_0 = 1
 one_parent_14: = 1
 consume_one_flow_unit_14: = 1
 one_parent_15: edge_2_15_0_0 + edge_3_15_0_0 + edge_7_15_0_0
   + edge_10_15_0_0 + edge_12_15_0_0 + edge_13_15_0_0 + edge_16_15_0_0
   + edge_17_15_0_0 = 1
 consume_one_flow_unit_15: flow_2_15_0_0 + flow_3_15_0_0 + flow_7_15_0_0
   + flow_10_15_0_0 + flow_12_15_0_0 + flow_13_15_0_0 - flow_15_13_0_0
   - flow_15_16_0_0 - flow_15_17_0_0 - flow_15_18_0_0 + flow_16_15_0_0
   + flow_17_15_0_0 = 1
 one_parent_16: edge_3_16_0_0 + edge_7_16_0_0 + edge_10_16_0_0
   + edge_12_16_0_0 + edge_15_16_0_0 + edge_17_16_0_0 + edge_18_16_0_0 = 1
 consume_one_flow_unit_16: flow_3_16_0_0 + flow_7_16_0_0 + flow_10_16_0_0
   + flow_12_16_0_0 + flow_15_16_0_0 - flow_16_13_0_0 - flow_16_15_0_0
   + flow_17_16_0_0 + flow_18_16_0_0 = 1
 one_parent_17: edge_3_17_0_0 + edge_5_17_0_0 + edge_7_17_0_0
   + edge_10_17_0_0 + edge_12_17_0_0 + edge_13_17_0_0 + edge_15_17_0_0
   + edge_18_17_0_0 = 1
 consume_one_flow_unit_17: flow_3_17_0_0 + flow_5_17_0_0 + flow_7_17_0_0
   + flow_10_17_0_0 + flow_12_17_0_0 + flow_13_17_0_0 + flow_15_17_0_0
   - flow_17_2_0_0 - flow_17_3_0_0 - flow_17_4_0_0 - flow_17_5_0_0
   - flow_17_7_0_0 - flow_17_8_0_0 - flow_17_10_0_0 - flow_17_11_0_0
   - flow_17_12_0_0 - flow_17_13_0_0 - flow_17_15_0_0 - flow_17_16_0_0
   - flow_17_18_0_0 + flow_18_17_0_0 = 1
 one_parent_18: edge_2_18_0_0 + edge_3_18_0_0 + edge_5_18_0_0
   + edge_7_18_0_0 + edge_10_18_0_0 + edge_12_18_0_0 + edge_15_18_0_0
   + edge_17_18_0_0 = 1
 consume_one_flow_unit_18: flow_2_18_0_0 + flow_3_18_0_0 + flow_5_18_0_0
   + flow_7_18_0_0 + flow_10_18_0_0 + flow_12_18_0_0 + flow_15_18_0_0
   + flow_17_18_0_0 - flow_18_16_0_0 - flow_18_17_0_0 = 1
 root_flow: flow_0_2_0_0 + flow_0_3_0_0 + flow_0_4_0_0 + flow_0_5_0_0
   + flow_0_7_0_0 + flow_0_10_0_0 + flow_0_12_0_0 = 18
 inactive_no_flow_0_2_0_0: flow_0_2_0_0 - 1000 edge_0_2_0_0 <= 0
 inactive_no_flow_0_3_0_0: flow_0_3_0_0 - 1000 edge_0_3_0_0 <= 0
 inactive_no_flow_0_4_0_0: flow_0_4_0_0 - 1000 edge_0_4_0_0 <= 0
 inactive_no_flow_0_5_0_0: flow_0_5_0_0 - 1000 edge_0_5_0_0 <= 0
 inactive_no_flow_0_7_0_0: flow_0_7_0_0 - 1000 edge_0_7_0_0 <= 0
 inactive_no_flow_0_10_0_0: flow_0_10_0_0 - 1000 edge_0_10_0_0 <= 0
 inactive_no_flow_0_12_0_0: flow_0_12_0_0 - 1000 edge_0_12_0_0 <= 0
 inactive_no_flow_2_3_0_0: flow_2_3_0_0 - 1000 edge_2_3_0_0 <= 0
 inactive_no_flow_2_4_0_0: flow_2_4_0_0 - 1000 edge_2_4_0_0 <= 0
 inactive_no_flow_2_5_0_0: flow_2_5_0_0 - 1000 edge_2_5_0_0 <= 0
 inactive_no_flow_2_7_0_0: flow_2_7_0_0 - 1000 edge_2_7_0_0 <= 0
 inactive_no_flow_2_8_0_0: flow_2_8_0_0 - 1000 edge_2_8_0_0 <= 0
 inactive_no_flow_2_10_0_0: flow_2_10_0_0 - 1000 edge_2_10_0_0 <= 0
 inactive_no_flow_2_11_0_0: flow_2_11_0_0 - 1000 edge_2_11_0_0 <= 0
 inactive_no_flow_2_12_0_0: flow_2_12_0_0 - 1000 edge_2_12_0_0 <= 0
 inactive_no_flow_2_13_0_0: flow_2_13_0_0 - 1000 edge_2_13_0_0 <= 0
 inactive_no_flow_2_15_0_0: flow_2_15_0_0 - 1000 edge_2_15_0_0 <= 0
 inactive_no_flow_2_18_0_0: flow_2_18_0_0 - 1000 edge_2_18_0_0 <= 0
 inactive_no_flow_3_2_0_0: flow_3_2_0_0 - 1000 edge_3_2_0_0 <= 0
 inactive_no_flow_3_4_0_0: flow_3_4_0_0 - 1000 edge_3_4_0_0 <= 0
 inactive_no_flow_3_5_0_0: flow_3_5_0_0 - 1000 edge_3_5_0_0 <= 0
 inactive_no_flow_3_7_0_0: flow_3_7_0_0 - 1000 edge_3_7_0_0 <= 0
 inactive_no_flow_3_8_0_0: flow_3_8_0_0 - 1000 edge_3_8_0_0 <= 0
 inactive_no_flow_3_10_0_0: flow_3_10_0_0 - 1000 edge_3_10_0_0 <= 0
 inactive_no_flow_3_11_0_0: flow_3_11_0_0 - 1000 edge_3_11_0_0 <= 0
 inactive_no_flow_3_12_0_0: flow_3_12_0_0 - 1000 edge_3_12_0_0 <= 0
 inactive_no_flow_3_15_0_0: flow_3_15_0_0 - 1000 edge_3_15_0_0 <= 0
 inactive_no_flow_3_16_0_0: flow_3_16_0_0 - 1000 edge_3_16_0_0 <= 0
 inactive_no_flow_3_17_0_0: flow_3_17_0_0 - 1000 edge_3_17_0_0 <= 0
 inactive_no_flow_3_18_0_0: flow_3_18_0_0 - 1000 edge_3_18_0_0 <= 0
 inactive_no_flow_4_2_0_0: flow_4_2_0_0 - 1000 edge_4_2_0_0 <= 0
 inactive_no_flow_4_3_0_0: flow_4_3_0_0 - 1000 edge_4_3_0_0 <= 0
 inactive_no_flow_4_5_0_0: flow_4_5_0_0 - 1000 edge_4_5_0_0 <= 0
 inactive_no_flow_5_2_0_0: flow_5_2_0_0 - 1000 edge_5_2_0_0 <= 0
 inactive_no_flow_5_3_0_0: flow_5_3_0_0 - 1000 edge_5_3_0_0 <= 0
 inactive_no_flow_5_4_0_0: flow_5_4_0_0 - 1000 edge_5_4_0_0 <= 0
 inactive_no_flow_5_7_0_0: flow_5_7_0_0 - 1000 edge_5_7_0_0 <= 0
 inactive_no_flow_5_8_0_0: flow_5_8_0_0 - 1000 edge_5_8_0_0 <= 0
 inactive_no_flow_5_10_0_0: flow_5_10_0_0 - 1000 edge_5_10_0_0 <= 0
 inactive_no_flow_5_11_0_0: flow_5_11_0_0 - 1000 edge_5_11_0_0 <= 0
 inactive_no_flow_5_12_0_0: flow_5_12_0_0 - 1000 edge_5_12_0_0 <= 0
 inactive_no_flow_5_13_0_0: flow_5_13_0_0 - 1000 edge_5_13_0_0 <= 0
 inactive_no_flow_5_17_0_0: flow_5_17_0_0 - 1000 edge_5_17_0_0 <= 0
 inactive_no_flow_5_18_0_0: flow_5_18_0_0 - 1000 edge_5_18_0_0 <= 0
 inactive_no_flow_7_2_0_0: flow_7_2_0_0 - 1000 edge_7_2_0_0 <= 0
 inactive_no_flow_7_3_0_0: flow_7_3_0_0 - 1000 edge_7_3_0_0 <= 0
 inactive_no_flow_7_4_0_0: flow_7_4_0_0 - 1000 edge_7_4_0_0 <= 0
 inactive_no_flow_7_5_0_0: flow_7_5_0_0 - 1000 edge_7_5_0_0 <= 0
 inactive_no_flow_7_8_0_0: flow_7_8_0_0 - 1000 edge_7_8_0_0 <= 0
 inactive_no_flow_7_9_0_0: flow_7_9_0_0 - 1000 edge_7_9_0_0 <= 0
 inactive_no_flow_7_10_0_0: flow_7_10_0_0 - 1000 edge_7_10_0_0 <= 0
 inactive_no_flow_7_11_0_0: flow_7_11_0_0 - 1000 edge_7_11_0_0 <= 0
 inactive_no_flow_7_12_0_0: flow_7_12_0_0 - 1000 edge_7_12_0_0 <= 0
 inactive_no_flow_7_13_0_0: flow_7_13_0_0 - 1000 edge_7_13_0_0 <= 0
 inactive_no_flow_7_15_0_0: flow_7_15_0_0 - 1000 edge_7_15_0_0 <= 0
 inactive_no_flow_7_16_0_0: flow_7_16_0_0 - 1000 edge_7_16_0_0 <= 0
 inactive_no_flow_7_17_0_0: flow_7_17_0_0 - 1000 edge_7_17_0_0 <= 0
 inactive_no_flow_7_18_0_0: flow_7_18_0_0 - 1000 edge_7_18_0_0 <= 0
 inactive_no_flow_10_2_0_0: flow_10_2_0_0 - 1000 edge_10_2_0_0 <= 0
 inactive_no_flow_10_3_0_0: flow_10_3_0_0 - 1000 edge_10_3_0_0 <= 0
 inactive_no_flow_10_4_0_0: flow_10_4_0_0 - 1000 edge_10_4_0_0 <= 0
 inactive_no_flow_10_5_0_0: flow_10_5_0_0 - 1000 edge_10_5_0_0 <= 0
 inactive_no_flow_10_7_0_0: flow_10_7_0_0 - 1000 edge_10_7_0_0 <= 0
 inactive_no_flow_10_8_0_0: flow_10_8_0_0 - 1000 edge_10_8_0_0 <= 0
 inactive_no_flow_10_9_0_0: flow_10_9_0_0 - 1000 edge_10_9_0_0 <= 0
 inactive_no_flow_10_11_0_0: flow_10_11_0_0 - 1000 edge_10_11_0_0 <= 0
 inactive_no_flow_10_12_0_0: flow_10_12_0_0 - 1000 edge_10_12_0_0 <= 0
 inactive_no_flow_10_13_0_0: flow_10_13_0_0 - 1000 edge_10_13_0_0 <= 0
 inactive_no_flow_10_15_0_0: flow_10_15_0_0 - 1000 edge_10_15_0_0 <= 0
 inactive_no_flow_10_16_0_0: flow_10_16_0_0 - 1000 edge_10_16_0_0 <= 0
 inactive_no_flow_10_17_0_0: flow_10_17_0_0 - 1000 edge_10_17_0_0 <= 0
 inactive_no_flow_10_18_0_0: flow_10_18_0_0 - 1000 edge_10_18_0_0 <= 0
 inactive_no_flow_11_12_0_0: flow_11_12_0_0 - 1000 edge_11_12_0_0 <= 0
 inactive_no_flow_12_2_0_0: flow_12_2_0_0 - 1000 edge_12_2_0_0 <= 0
 inactive_no_flow_12_3_0_0: flow_12_3_0_0 - 1000 edge_12_3_0_0 <= 0
 inactive_no_flow_12_4_0_0: flow_12_4_0_0 - 1000 edge_12_4_0_0 <= 0
 inactive_no_flow_12_5_0_0: flow_12_5_0_0 - 1000 edge_12_5_0_0 <= 0
 inactive_no_flow_12_7_0_0: flow_12_7_0_0 - 1000 edge_12_7_0_0 <= 0
 inactive_no_flow_12_8_0_0: flow_12_8_0_0 - 1000 edge_12_8_0_0 <= 0
 inactive_no_flow_12_9_0_0: flow_12_9_0_0 - 1000 edge_12_9_0_0 <= 0
 inactive_no_flow_12_10_0_0: flow_12_10_0_0 - 1000 edge_12_10_0_0 <= 0
 inactive_no_flow_12_11_0_0: flow_12_11_0_0 - 1000 edge_12_11_0_0 <= 0
 inactive_no_flow_12_13_0_0: flow_12_13_0_0 - 1000 edge_12_13_0_0 <= 0
 inactive_no_flow_12_15_0_0: flow_12_15_0_0 - 1000 edge_12_15_0_0 <= 0
 inactive_no_flow_12_16_0_0: flow_12_16_0_0 - 1000 edge_12_16_0_0 <= 0
 inactive_no_flow_12_17_0_0: flow_12_17_0_0 - 1000 edge_12_17_0_0 <= 0
 inactive_no_flow_12_18_0_0: flow_12_18_0_0 - 1000 edge_12_18_0_0 <= 0
 inactive_no_flow_13_15_0_0: flow_13_15_0_0 - 1000 edge_13_15_0_0 <= 0
 inactive_no_flow_13_17_0_0: flow_13_17_0_0 - 1000 edge_13_17_0_0 <= 0
 inactive_no_flow_15_13_0_0: flow_15_13_0_0 - 1000 edge_15_13_0_0 <= 0
 inactive_no_flow_15_16_0_0: flow_15_16_0_0 - 1000 edge_15_16_0_0 <= 0
 inactive_no_flow_15_17_0_0: flow_15_17_0_0 - 1000 edge_15_17_0_0 <= 0
 inactive_no_flow_15_18_0_0: flow_15_18_0_0 - 1000 edge_15_18_0_0 <= 0
 inactive_no_flow_16_13_0_0: flow_16_13_0_0 - 1000 edge_16_13_0_0 <= 0
 inactive_no_flow_16_15_0_0: flow_16_15_0_0 - 1000 edge_16_15_0_0 <= 0
 inactive_no_flow_17_2_0_0: flow_17_2_0_0 - 1000 edge_17_2_0_0 <= 0
 inactive_no_flow_17_3_0_0: flow_17_3_0_0 - 1000 edge_17_3_0_0 <= 0
 inactive_no_flow_17_4_0_0: flow_17_4_0_0 - 1000 edge_17_4_0_0 <= 0
 inactive_no_flow_17_5_0_0: flow_17_5_0_0 - 1000 edge_17_5_0_0 <= 0
 inactive_no_flow_17_7_0_0: flow_17_7_0_0 - 1000 edge_17_7_0_0 <= 0
 inactive_no_flow_17_8_0_0: flow_17_8_0_0 - 1000 edge_17_8_0_0 <= 0
 inactive_no_flow_17_10_0_0: flow_17_10_0_0 - 1000 edge_17_10_0_0 <= 0
 inactive_no_flow_17_11_0_0: flow_17_11_0_0 - 1000 edge_17_11_0_0 <= 0
 inactive_no_flow_17_12_0_0: flow_17_12_0_0 - 1000 edge_17_12_0_0 <= 0
 inactive_no_flow_17_13_0_0: flow_17_13_0_0 - 1000 edge_17_13_0_0 <= 0
 inactive_no_flow_17_15_0_0: flow_17_15_0_0 - 1000 edge_17_15_0_0 <= 0
 inactive_no_flow_17_16_0_0: flow_17_16_0_0 - 1000 edge_17_16_0_0 <= 0
 inactive_no_flow_17_18_0_0: flow_17_18_0_0 - 1000 edge_17_18_0_0 <= 0
 inactive_no_flow_18_16_0_0: flow_18_16_0_0 - 1000 edge_18_16_0_0 <= 0
 inactive_no_flow_18_17_0_0: flow_18_17_0_0 - 1000 edge_18_17_0_0 <= 0
Bounds
Binaries
 edge_0_2_0_0 edge_0_3_0_0 edge_0_4_0_0 edge_0_5_0_0 edge_0_7_0_0
 edge_0_10_0_0 edge_0_12_0_0 edge_2_3_0_0 edge_2_4_0_0 edge_2_5_0_0
 edge_2_7_0_0 edge_2_8_0_0 edge_2_10_0_0 edge_2_11_0_0 edge_2_12_0_0
 edge_2_13_0_0 edge_2_15_0_0 edge_2_18_0_0 edge_3_2_0_0 edge_3_4_0_0
 edge_3_5_0_0 edge_3_7_0_0 edge_3_8_0_0 edge_3_10_0_0 edge_3_11_0_0
 edge_3_12_0_0 edge_3_15_0_0 edge_3_16_0_0 edge_3_17_0_0 edge_3_18_0_0
 edge_4_2_0_0 edge_4_3_0_0 edge_4_5_0_0 edge_5_2_0_0 edge_5_3_0_0
 edge_5_4_0_0 edge_5_7_0_0 edge_5_8_0_0 edge_5_10_0_0 edge_5_11_0_0
 edge_5_12_0_0 edge_5_13_0_0 edge_5_17_0_0 edge_5_18_0_0 edge_7_2_0_0
 edge_7_3_0_0 edge_7_4_0_0 edge_7_5_0_0 edge_7_8_0_0 edge_7_9_0_0
 edge_7_10_0_0 edge_7_11_0_0 edge_7_12_0_0 edge_7_13_0_0 edge_7_15_0_0
 edge_7_16_0_0 edge_7_17_0_0 edge_7_18_0_0 edge_10_2_0_0 edge_10_3_0_0
 edge_10_4_0_0 edge_10_5_0_0 edge_10_7_0_0 edge_10_8_0_0 edge_10_9_0_0
 edge_10_11_0_0 edge_10_12_0_0 edge_10_13_0_0 edge_10_15_0_0 edge_10_16_0_0
 edge_10_17_0_0 edge_10_18_0_0 edge_11_12_0_0 edge_12_2_0_0 edge_12_3_0_0
 edge_12_4_0_0 edge_12_5_0_0 edge_12_7_0_0 edge_12_8_0_0 edge_12_9_0_0
 edge_12_10_0_0 edge_12_11_0_0 edge_12_13_0_0 edge_12_15_0_0 edge_12_16_0_0
 edge_12_17_0_0 edge_12_18_0_0 edge_13_15_0_0 edge_13_17_0_0 edge_15_13_0_0
 edge_15_16_0_0 edge_15_17_0_0 edge_15_18_0_0 edge_16_13_0_0 edge_16_15_0_0
 edge_17_2_0_0 edge_17_3_0_0 edge_17_4_0_0 edge_17_5_0_0 edge_17_7_0_0
 edge_17_8_0_0 edge_17_10_0_0 edge_17_11_0_0 edge_17_12_0_0 edge_17_13_0_0
 edge_17_15_0_0 edge_17_16_0_0 edge_17_18_0_0 edge_18_16_0_0 edge_18_17_0_0
End
